c User generated cnf file
p cnf 14 24
5 13 -2 0 
14 -10 4 0 
8 13 -6 0 
9 12 -12 0 
4 12 -5 0 
11 10 -14 0 
9 1 -11 0 
2 -14 10 0 
10 -9 3 0 
5 13 -10 0 
1 3 -6 0 
12 9 -7 0 
5 4 -6 0 
9 -5 11 0 
6 12 -11 0 
14 13 -13 0 
5 11 -12 0 
4 6 -4 0 
14 9 -7 0 
5 13 -8 0 
7 -3 14 0 
13 -2 2 0 
14 4 -2 0 
10 -13 10 0 
